set VV := 0 1 2 3 ;
set VS := 0 1 2 3 4 5 6 7 8 9 10 11 ;
param cv := 
0 14
1 11
2 16
3 25
;
param cs := 
0 39
1 26
2 36
3 24
4 31
5 23
6 39
7 25
8 36
9 37
10 27
11 20
;
param bv:	 0 1 2 3 := 
		0 0 24 22 0 
		1 0 0 0 0 
		2 0 0 0 18 
		3 0 0 0 0 
;
param bs:	 0 1 2 3 4 5 6 7 8 9 10 11 := 
		0 0 0 0 36 0 0 0 0 0 0 0 0 
		1 0 0 0 0 0 38 0 27 0 0 0 30 
		2 0 0 0 25 20 0 0 0 0 0 0 0 
		3 36 0 25 0 0 0 24 0 40 0 0 0 
		4 0 0 20 0 0 0 0 36 0 0 0 0 
		5 0 38 0 0 0 0 0 0 0 0 0 0 
		6 0 0 0 24 0 0 0 0 0 25 0 0 
		7 0 27 0 0 36 0 0 0 0 0 0 0 
		8 0 0 0 40 0 0 0 0 0 0 0 0 
		9 0 0 0 0 0 0 25 0 0 0 32 0 
		10 0 0 0 0 0 0 0 0 0 32 0 0 
		11 0 30 0 0 0 0 0 0 0 0 0 0 
;
